\ LP format - for model browsing. Use MPS format to capture full model detail.
Minimize
  22 x[0,0] + 33 x[0,1] + 24 x[0,2] + 33 x[1,0] + 23 x[1,1] + 30 x[1,2]
   + 20 x[2,0] + 25 x[2,1] + 27 x[2,2]
Subject To
 R0: x[0,0] + x[0,1] + x[0,2] <= 772
 R1: x[1,0] + x[1,1] + x[1,2] <= 0
 R2: x[2,0] + x[2,1] + x[2,2] <= 0
 R3: x[0,0] + x[1,0] + x[2,0] - 40 g[0] >= 206
 R4: x[0,1] + x[1,1] + x[2,1] - 40 g[1] >= 274
 R5: x[0,2] + x[1,2] + x[2,2] - 40 g[2] >= 220
 R6: pi[0] - theta[0] <= 22
 R7: pi[0] - theta[1] <= 33
 R8: pi[0] - theta[2] <= 24
 R9: pi[1] - theta[0] <= 33
 R10: pi[1] - theta[1] <= 23
 R11: pi[1] - theta[2] <= 30
 R12: pi[2] - theta[0] <= 20
 R13: pi[2] - theta[1] <= 25
 R14: pi[2] - theta[2] <= 27
 R15: - pi[0] - 1e+06 v[0] <= 0
 R16: - pi[1] - 1e+06 v[1] <= 0
 R17: - pi[2] - 1e+06 v[2] <= 0
 R18: - x[0,0] - x[0,1] - x[0,2] + 1e+06 v[0] <= 999228
 R19: - x[1,0] - x[1,1] - x[1,2] + 1e+06 v[1] <= 1e+06
 R20: - x[2,0] - x[2,1] - x[2,2] + 1e+06 v[2] <= 1e+06
 R21: - theta[0] - 1e+06 w[0] <= 0
 R22: - theta[1] - 1e+06 w[1] <= 0
 R23: - theta[2] - 1e+06 w[2] <= 0
 R24: x[0,0] + x[1,0] + x[2,0] - 40 g[0] + 1e+06 w[0] <= 1.000206e+06
 R25: x[0,1] + x[1,1] + x[2,1] - 40 g[1] + 1e+06 w[1] <= 1.000274e+06
 R26: x[0,2] + x[1,2] + x[2,2] - 40 g[2] + 1e+06 w[2] <= 1.00022e+06
 R27: x[0,0] - 1e+06 h[0,0] <= 0
 R28: x[0,1] - 1e+06 h[0,1] <= 0
 R29: x[0,2] - 1e+06 h[0,2] <= 0
 R30: x[1,0] - 1e+06 h[1,0] <= 0
 R31: x[1,1] - 1e+06 h[1,1] <= 0
 R32: x[1,2] - 1e+06 h[1,2] <= 0
 R33: x[2,0] - 1e+06 h[2,0] <= 0
 R34: x[2,1] - 1e+06 h[2,1] <= 0
 R35: x[2,2] - 1e+06 h[2,2] <= 0
 R36: - pi[0] + theta[0] + 1e+06 h[0,0] <= 999978
 R37: - pi[0] + theta[1] + 1e+06 h[0,1] <= 999967
 R38: - pi[0] + theta[2] + 1e+06 h[0,2] <= 999976
 R39: - pi[1] + theta[0] + 1e+06 h[1,0] <= 999967
 R40: - pi[1] + theta[1] + 1e+06 h[1,1] <= 999977
 R41: - pi[1] + theta[2] + 1e+06 h[1,2] <= 999970
 R42: - pi[2] + theta[0] + 1e+06 h[2,0] <= 999980
 R43: - pi[2] + theta[1] + 1e+06 h[2,1] <= 999975
 R44: - pi[2] + theta[2] + 1e+06 h[2,2] <= 999973
 R45: g[0] + g[1] <= 1.2
 R46: g[0] + g[1] + g[2] <= 1.8
Bounds
 g[0] <= 1
 g[1] <= 1
 g[2] <= 1
 pi[0] = 0
 pi[1] = 0
 pi[2] = 0
 theta[0] = 0
 theta[1] = 0
 theta[2] = 0
Binaries
 v[0] v[1] v[2] w[0] w[1] w[2] h[0,0] h[0,1] h[0,2] h[1,0] h[1,1] h[1,2]
 h[2,0] h[2,1] h[2,2]
End
